DIMENSION: 7
EDGE_WEIGHT_TYPE: EXPLICIT
EDGE_WEIGHT_FORMAT: FULL_MATRIX
EDGE_WEIGHT_SECTION:
32767 47 81 87 72 49 86 
47 32767 33 32767 82 36 32767 
81 33 32767 32767 43 83 32767 
87 32767 32767 32767 2 24 59 
72 82 43 2 32767 61 44 
49 36 83 24 61 32767 90 
86 32767 32767 59 44 90 32767 
EOF